NAME : CMT13Y
TYPE : MVRPB
DIMENSION : 121
VEHICLES : 11
CAPACITY : 20000
DISTANCE : 720
EDGE_WEIGHT_TYPE : EXACT_2D
NODE_COORD_SECTION
1 10 45
2 25 1
3 25 3
4 31 5
5 32 5
6 31 7
7 32 9
8 34 9
9 46 9
10 35 7
11 34 6
12 35 5
13 47 6
14 40 5
15 39 3
16 36 3
17 73 6
18 73 8
19 24 36
20 76 6
21 76 10
22 76 13
23 78 3
24 78 9
25 79 3
26 79 5
27 79 11
28 82 3
29 82 7
30 90 15
31 84 3
32 84 5
33 84 9
34 85 1
35 87 5
36 85 8
37 87 7
38 86 41
39 86 44
40 86 46
41 85 55
42 89 43
43 89 46
44 89 52
45 92 42
46 92 52
47 94 42
48 94 44
49 94 48
50 96 42
51 99 46
52 99 50
53 83 80
54 83 83
55 85 81
56 85 85
57 85 89
58 87 80
59 87 86
60 90 77
61 90 88
62 93 82
63 93 84
64 93 89
65 94 86
66 95 80
67 99 89
68 37 83
69 50 80
70 35 85
71 35 87
72 44 86
73 46 89
74 46 83
75 46 87
76 46 89
77 48 83
78 50 85
79 50 88
80 54 86
81 54 90
82 10 35
83 10 40
84 18 30
85 17 35
86 16 38
87 14 40
88 15 42
89 11 42
90 18 40
91 21 39
92 20 40
93 18 41
94 20 44
95 22 44
96 16 45
97 20 45
98 25 45
99 30 55
100 20 50
101 22 51
102 18 49
103 16 48
104 20 55
105 18 53
106 14 50
107 15 51
108 16 54
109 28 33
110 33 38
111 30 50
112 13 40
113 15 36
114 18 31
115 25 37
116 30 46
117 25 52
118 16 33
119 25 35
120 5 40
121 5 50
PICKUP_AND_DELIVERY_SECTION
1 0 0 10000000 50 0 0
2 0 0 10000000 50 100 2400
3 0 0 10000000 50 84 616
4 0 0 10000000 50 210 1090
5 0 0 10000000 50 94 506
6 0 0 10000000 50 316 1084
7 0 0 10000000 50 141 359
8 0 0 10000000 50 291 809
9 0 0 10000000 50 372 1528
10 0 0 10000000 50 100 400
11 0 0 10000000 50 265 1235
12 0 0 10000000 50 214 1286
13 0 0 10000000 50 217 1483
14 0 0 10000000 50 163 1138
15 0 0 10000000 50 92 1108
16 0 0 10000000 50 150 1650
17 0 0 10000000 50 107 1193
18 0 0 10000000 50 197 1603
19 0 0 10000000 50 800 400
20 0 0 10000000 50 134 1566
21 0 0 10000000 50 53 347
22 0 0 10000000 50 120 580
23 0 0 10000000 50 46 1154
24 0 0 10000000 50 150 1150
25 0 0 10000000 50 30 770
26 0 0 10000000 50 101 1499
27 0 0 10000000 50 209 1291
28 0 0 10000000 50 22 578
29 0 0 10000000 50 43 457
30 0 0 10000000 50 150 750
31 0 0 10000000 50 39 1061
32 0 0 10000000 50 60 940
33 0 0 10000000 50 32 268
34 0 0 10000000 50 8 692
35 0 0 10000000 50 11 189
36 0 0 10000000 50 38 362
37 0 0 10000000 50 32 368
38 0 0 10000000 50 858 942
39 0 0 10000000 50 716 684
40 0 0 10000000 50 642 558
41 0 0 10000000 50 1100 600
42 0 0 10000000 50 966 1034
43 0 0 10000000 50 724 676
44 0 0 10000000 50 935 665
45 0 0 10000000 50 457 543
46 0 0 10000000 50 509 391
47 0 0 10000000 50 491 609
48 0 0 10000000 50 328 372
49 0 0 10000000 50 664 636
50 0 0 10000000 50 219 281
51 0 0 10000000 50 186 214
52 0 0 10000000 50 1061 1039
53 0 0 10000000 50 1253 47
54 0 0 10000000 50 1100 0
55 0 0 10000000 50 1144 56
56 0 0 10000000 50 1400 0
57 0 0 10000000 50 955 45
58 0 0 10000000 50 736 64
59 0 0 10000000 50 1582 18
60 0 0 10000000 50 1626 274
61 0 0 10000000 50 489 11
62 0 0 10000000 50 1499 201
63 0 0 10000000 50 632 68
64 0 0 10000000 50 1531 69
65 0 0 10000000 50 1281 119
66 0 0 10000000 50 1432 268
67 0 0 10000000 50 1169 131
68 0 0 10000000 50 758 942
69 0 0 10000000 50 813 488
70 0 0 10000000 50 576 824
71 0 0 10000000 50 644 956
72 0 0 10000000 50 358 342
73 0 0 10000000 50 672 628
74 0 0 10000000 50 499 401
75 0 0 10000000 50 582 518
76 0 0 10000000 50 1809 1691
77 0 0 10000000 50 289 211
78 0 0 10000000 50 1647 1153
79 0 0 10000000 50 398 302
80 0 0 10000000 50 188 112
81 0 0 10000000 50 600 400
82 0 0 10000000 50 200 500
83 0 0 10000000 50 300 900
84 0 0 10000000 50 660 440
85 0 0 10000000 50 486 514
86 0 0 10000000 50 337 463
87 0 0 10000000 50 385 715
88 0 0 10000000 50 750 1350
89 0 0 10000000 50 105 295
90 0 0 10000000 50 675 825
91 0 0 10000000 50 862 738
92 0 0 10000000 50 200 200
93 0 0 10000000 50 702 898
94 0 0 10000000 50 318 382
95 0 0 10000000 50 500 500
96 0 0 10000000 50 320 580
97 0 0 10000000 50 489 611
98 0 0 10000000 50 944 756
99 0 0 10000000 50 655 545
100 0 0 10000000 50 440 660
101 0 0 10000000 50 302 398
102 0 0 10000000 50 331 569
103 0 0 10000000 50 367 733
104 0 0 10000000 50 436 764
105 0 0 10000000 50 238 462
106 0 0 10000000 50 224 576
107 0 0 10000000 50 176 424
108 0 0 10000000 50 148 352
109 0 0 10000000 50 1018 182
110 0 0 10000000 50 1129 171
111 0 0 10000000 50 420 280
112 0 0 10000000 50 228 473
113 0 0 10000000 50 333 467
114 0 0 10000000 50 639 461
115 0 0 10000000 50 878 422
116 0 0 10000000 50 717 383
117 0 0 10000000 50 481 519
118 0 0 10000000 50 339 361
119 0 0 10000000 50 286 114
120 0 0 10000000 50 250 1750
121 0 0 10000000 50 130 1170
DEPOT_SECTION
1 
-1
EOF
